rehearsal = [[1,1,1,1,0,0,1,1,1,1,1,1,1,0,0], [0,0,1,1,1,1,1,1,1,1,1,1,1,1,1], [1,1,1,0,1,1,1,1,1,1,0,1,0,1,1], [0,0,1,1,1,1,1,1,0,1,0,0,1,1,1], [0,0,1,0,1,0,0,1,1,1,0,1,1,1,0], [1,1,1,1,1,1,1,1,1,1,1,1,1,1,1], [1,1,0,0,0,1,0,0,1,1,1,1,1,1,1], [1,1,1,0,1,1,1,1,1,1,1,0,1,1,1], [0,0,0,1,0,1,1,1,1,0,1,1,1,0,1], [1,1,0,1,0,0,1,0,1,0,1,1,0,1,0], [1,1,1,1,1,1,1,1,1,1,0,1,1,1,1], [1,1,1,0,1,1,1,1,1,0,0,1,0,0,0], [0,1,1,0,0,1,1,0,0,1,0,0,1,0,1], [1,1,1,1,1,1,1,1,1,0,1,1,0,0,1], [0,1,1,1,1,1,0,0,0,1,1,1,0,0,1], [1,1,1,1,1,0,1,0,1,1,1,1,1,0,1], [1,1,1,0,1,1,1,1,1,1,0,0,1,0,1], [0,1,0,1,0,1,1,1,1,1,0,1,1,1,1], [1,1,0,1,1,0,1,1,1,1,1,1,1,1,1], [1,1,0,1,1,1,0,1,1,1,0,1,0,1,1], [0,1,0,0,0,1,1,1,1,0,1,1,1,0,1], [1,0,1,0,0,1,1,1,1,1,1,0,1,0,1], [1,1,1,1,1,1,1,0,1,1,1,1,1,1,1], [1,0,1,1,1,1,1,0,0,1,1,0,1,0,1], [0,1,1,1,0,1,0,1,1,0,1,1,0,1,1], [0,1,1,1,1,1,0,1,1,1,1,0,1,0,1], [0,1,1,1,1,1,1,1,0,1,1,1,1,1,1], [0,0,1,0,1,1,1,1,1,1,1,0,0,1,1], [1,0,1,1,1,1,1,1,1,1,1,0,1,1,0], [1,1,1,1,0,1,1,0,0,1,1,1,1,1,1], [0,1,1,0,1,1,0,1,1,0,1,1,1,0,1], [0,0,1,1,1,1,1,0,1,1,1,0,1,1,0], [1,1,1,1,1,1,1,1,1,1,1,1,1,0,1], [1,0,1,1,1,1,0,1,1,1,0,1,1,1,1], [1,1,1,1,1,1,1,1,1,0,1,1,1,1,1], [0,1,1,1,1,1,1,0,1,1,1,1,1,1,1], [1,1,0,0,0,0,1,1,0,1,0,1,1,1,0], [0,1,1,1,1,1,1,1,1,1,0,0,1,1,1], [1,0,1,0,1,1,1,1,0,1,1,1,0,1,1], [1,1,1,1,1,1,1,1,1,1,1,1,1,1,1], [1,1,1,1,1,1,1,0,1,0,1,0,1,1,1], [1,1,1,1,1,1,1,1,1,1,1,1,1,1,1], [0,0,1,1,0,1,1,0,1,1,1,1,1,0,0], [1,1,1,1,0,1,1,1,0,1,0,1,1,1,0], [0,1,1,1,1,0,0,1,0,1,1,0,1,1,1], [1,1,1,1,1,1,1,1,1,1,1,0,1,1,1], [1,1,1,1,1,1,0,1,1,1,1,0,0,1,1], [1,1,1,1,1,0,1,1,0,1,0,1,1,0,1], [1,0,1,1,1,1,1,0,0,0,1,1,1,0,1], [1,1,0,0,0,0,0,1,1,1,0,1,1,1,1]];
permutations = [1,5,10,3,2,7,6,13,15,11,4,12,9,8,14];